100
14 68
73 2
13 47
37 44
34 63
58 98
33 42
18 98
24 79
17 28
72 67
78 63
42 48
1 2
2 28
32 82
97 38
39 53
87 1
42 77
83 27
79 92
22 39
58 32
53 84
38 37
63 59
42 88
32 88
38 23
63 32
22 73
88 94
58 78
43 62
73 1
17 32
87 79
12 24
48 53
48 23
7 37
98 77
34 12
DEMAND_SECTION Optimal value: 937
0 
8 
24 
9 
19 
9 
18 
9 
14 
3 
14 
8 
8 
13 
18 
4 
24 
14 
8 
18 
13 
2 
9 
18 
3 
24 
8 
24 
14 
13 
24 
23 
9 
13 
14 
14 
18 
24 
4 
8 
13 
4 
14 
18 